(set-info :smt-lib-version 2.6)
(set-logic LIA)
(set-info
  :source |
 Generated by PSyCO 0.1
 More info in N. P. Lopes and J. Monteiro. Weakest Precondition Synthesis for
 Compiler Optimizations, VMCAI'14.
|)
(set-info :category "industrial")
(set-info :status sat)
(declare-fun W_S1_V1 () Bool)
(declare-fun W_S2_V1 () Bool)
(declare-fun W_S1_V2 () Bool)
(declare-fun W_S2_V2 () Bool)
(declare-fun W_S1_V3 () Bool)
(declare-fun W_S2_V3 () Bool)
(declare-fun W_S1_V5 () Bool)
(declare-fun W_S2_V5 () Bool)
(declare-fun W_S1_V4 () Bool)
(declare-fun W_S2_V4 () Bool)
(declare-fun W_S1_V6 () Bool)
(declare-fun W_S2_V6 () Bool)
(declare-fun R_S1_V1 () Bool)
(declare-fun R_E1_V1 () Bool)
(declare-fun R_E1_V3 () Bool)
(declare-fun R_E1_V2 () Bool)
(declare-fun R_E1_V5 () Bool)
(declare-fun R_E1_V4 () Bool)
(declare-fun R_E1_V6 () Bool)
(declare-fun R_S2_V1 () Bool)
(declare-fun R_S2_V3 () Bool)
(declare-fun R_S2_V2 () Bool)
(declare-fun R_S2_V5 () Bool)
(declare-fun R_S2_V4 () Bool)
(declare-fun R_S2_V6 () Bool)
(assert
 (forall
  ((V6_0 Int) (V4_0 Int) (V5_0 Int) 
   (V2_0 Int) (V3_0 Int) (V1_0 Int) 
   (S1_V4_!159 Int) (S1_V4_!172 Int) 
   (S2_V3_!168 Int) (S2_V3_!181 Int) 
   (S2_V4_!165 Int) (S2_V4_!178 Int) 
   (S1_V6_!158 Int) (S1_V6_!171 Int) 
   (S2_V5_!166 Int) (S2_V5_!179 Int) 
   (S1_V1_!163 Int) (S1_V1_!176 Int) 
   (S2_V6_!164 Int) (S2_V6_!177 Int) 
   (S1_V3_!162 Int) (S1_V3_!175 Int) 
   (S1_V2_!161 Int) (S1_V2_!174 Int) 
   (S2_V1_!169 Int) (S2_V1_!182 Int) 
   (S2_V2_!167 Int) (S2_V2_!180 Int) 
   (E1_!157 Int) (E1_!170 Int) 
   (E1_!183 Int) (S1_V5_!160 Int) 
   (S1_V5_!173 Int))
  (let ((?x2419 (ite W_S1_V1 S1_V1_!176 E1_!170)))
  (let ((?x2423 (ite W_S2_V1 S2_V1_!182 ?x2419)))
  (let ((?x2442 (ite W_S1_V2 S1_V2_!174 V2_0)))
  (let ((?x2444 (ite W_S2_V2 S2_V2_!180 ?x2442)))
  (let
  (($x2738
    (= (ite W_S2_V3 S2_V3_!168 (+ 1 (ite W_S1_V3 S1_V3_!162 V3_0)))
    (+ (ite W_S2_V3 S2_V3_!181 (ite W_S1_V3 S1_V3_!175 V3_0)) ?x2444
    (* (- 1) E1_!183)))))
  (let
  (($x2753
    (= (ite W_S2_V5 S2_V5_!166 (ite W_S1_V5 S1_V5_!160 V5_0))
    (ite W_S2_V5 S2_V5_!179 (ite W_S1_V5 S1_V5_!173 V5_0)))))
  (let
  (($x2760
    (= (ite W_S2_V4 S2_V4_!165 (ite W_S1_V4 S1_V4_!159 V4_0))
    (ite W_S2_V4 S2_V4_!178 (ite W_S1_V4 S1_V4_!172 V4_0)))))
  (let
  (($x2768
    (= (ite W_S2_V6 S2_V6_!164 (ite W_S1_V6 S1_V6_!158 V6_0))
    (ite W_S2_V6 S2_V6_!177 (ite W_S1_V6 S1_V6_!171 V6_0)))))
  (let
  (($x2769
    (and $x2768 $x2760 $x2753
    (= (ite W_S2_V2 S2_V2_!167 (ite W_S1_V2 S1_V2_!161 V2_0)) ?x2444) $x2738
    (= (ite W_S2_V1 S2_V1_!169 (ite W_S1_V1 S1_V1_!163 E1_!157)) ?x2423))))
  (let
  (($x2781
    (>= (ite W_S2_V1 S2_V1_!169 (ite W_S1_V1 S1_V1_!163 E1_!157))
    (+ (- 1) (ite W_S2_V2 S2_V2_!167 (ite W_S1_V2 S1_V2_!161 V2_0))))))
  (let
  (($x2784
    (and (not (<= V2_0 E1_!157)) $x2781 
    (not (<= V2_0 E1_!170)) 
    (>= ?x2423 (+ (- 1) ?x2444)))))
  (let (($x483 (not R_E1_V3)))
  (let (($x479 (not R_E1_V5)))
  (let (($x477 (not R_E1_V4)))
  (let (($x475 (not R_E1_V6)))
  (let
  (($x2817
    (and
    (or $x475
    (= (ite W_S2_V6 S2_V6_!177 (ite W_S1_V6 S1_V6_!171 V6_0)) V6_0))
    (or $x477
    (= (ite W_S2_V4 S2_V4_!178 (ite W_S1_V4 S1_V4_!172 V4_0)) V4_0))
    (or $x479
    (= (ite W_S2_V5 S2_V5_!179 (ite W_S1_V5 S1_V5_!173 V5_0)) V5_0))
    (or (not R_E1_V2) (= ?x2444 V2_0))
    (or $x483
    (= (ite W_S2_V3 S2_V3_!181 (ite W_S1_V3 S1_V3_!175 V3_0)) V3_0))
    (or (not R_E1_V1) (= ?x2423 (+ (- 1) V1_0))))))
  (let (($x593 (not R_S2_V3)))
  (let
  (($x2834
    (or $x593
    (= (ite W_S1_V3 S1_V3_!162 V3_0) (+ (- 1) (ite W_S1_V3 S1_V3_!175 V3_0))))))
  (let (($x589 (not R_S2_V5)))
  (let (($x587 (not R_S2_V4)))
  (let (($x585 (not R_S2_V6)))
  (let
  (($x2851
    (and
    (or $x585
    (= (ite W_S1_V6 S1_V6_!158 V6_0) (ite W_S1_V6 S1_V6_!171 V6_0)))
    (or $x587
    (= (ite W_S1_V4 S1_V4_!159 V4_0) (ite W_S1_V4 S1_V4_!172 V4_0)))
    (or $x589
    (= (ite W_S1_V5 S1_V5_!160 V5_0) (ite W_S1_V5 S1_V5_!173 V5_0)))
    (or (not R_S2_V2) (= (ite W_S1_V2 S1_V2_!161 V2_0) ?x2442)) $x2834
    (or (not R_S2_V1) (= (ite W_S1_V1 S1_V1_!163 E1_!157) ?x2419)))))
  (let (($x2853 (not $x2851)))
  (let
  (($x2878
    (or $x593
    (= (ite W_S1_V3 S1_V3_!175 V3_0) (+ 1 (ite W_S1_V3 S1_V3_!162 V3_0))))))
  (let
  (($x2891
    (and
    (or $x585
    (= (ite W_S1_V6 S1_V6_!171 V6_0) (ite W_S1_V6 S1_V6_!158 V6_0)))
    (or $x587
    (= (ite W_S1_V4 S1_V4_!172 V4_0) (ite W_S1_V4 S1_V4_!159 V4_0)))
    (or $x589
    (= (ite W_S1_V5 S1_V5_!173 V5_0) (ite W_S1_V5 S1_V5_!160 V5_0)))
    (or (not R_S2_V2) (= ?x2442 (ite W_S1_V2 S1_V2_!161 V2_0))) $x2878
    (or (not R_S2_V1) (= ?x2419 (ite W_S1_V1 S1_V1_!163 E1_!157))))))
  (let (($x2893 (not $x2891)))
  (let
  (($x2908
    (and
    (or (not (or (not R_S1_V1) (= E1_!170 E1_!157)))
    (= S1_V4_!172 S1_V4_!159)) 
    (or $x2893 (= S2_V3_!181 S2_V3_!168))
    (or $x2893 (= S2_V4_!178 S2_V4_!165))
    (or (not (or (not R_S1_V1) (= E1_!170 E1_!157)))
    (= S1_V6_!171 S1_V6_!158)) 
    (or $x2893 (= S2_V5_!179 S2_V5_!166))
    (or (not (or (not R_S1_V1) (= E1_!170 E1_!157)))
    (= S1_V1_!176 S1_V1_!163)) 
    (or $x2853 (= S2_V6_!164 S2_V6_!177))
    (or (not (or (not R_S1_V1) (= E1_!170 E1_!157)))
    (= S1_V3_!175 S1_V3_!162))
    (or (not (or (not R_S1_V1) (= E1_!170 E1_!157)))
    (= S1_V2_!174 S1_V2_!161)) 
    (or $x2853 (= S2_V1_!169 S2_V1_!182))
    (or $x2853 (= S2_V2_!167 S2_V2_!180)) 
    (= E1_!157 E1_!170) (or (not $x2817) (= E1_!183 E1_!157))
    (or (not $x2817) (= E1_!183 E1_!170))
    (or (not (or (not R_S1_V1) (= E1_!170 E1_!157)))
    (= S1_V5_!173 S1_V5_!160))))) 
  (or (not $x2908) (not $x2784) $x2769))))))))))))))))))))))))))))))
(check-sat)
(exit)

